1111100 AB
360 384 409 434 454 473 492 512 531 558 585 613 640 668 695 723 750 778 805 833 861 888 919 950 981 1013 1034 1055 1076 1097 1118 1138 1158 1186 1214 1242 1275 1308 1357 1406 15
1111100 BA
385 409 436 462 482 501 520 540 558 585 612 640 667 695 722 750 777 805 832 860 888 919 951 982 1013 1045 1066 1087 1108 1129 1149 1166 1186 1214 1242 1269 1300 1333 1382 1431 40
0000011 AB
360 384 409 436 463 491 518 545 573 600 628 655 683 702 720 738 765 793 820 848 875 903 930 958 985 1003 1021 1040 1067 1095 1122 1149 1176 1203 1229 1256 1280 1328 1376 1424 31
0000011 BA
385 409 435 463 490 518 545 572 600 627 655 682 710 729 747 765 792 820 847 875 902 930 957 985 1012 1030 1048 1067 1094 1122 1149 1176 1203 1230 1256 1282 1305 1353 1401 9 56
